(set-logic QF_LRA)
(declare-fun X0 () Real )
(declare-fun Y0 () Real )
(declare-fun X1 () Real )
(declare-fun Y1 () Real )
(declare-fun X2 () Real )
(declare-fun Y2 () Real )
(declare-fun X3 () Real )
(declare-fun Y3 () Real )
(declare-fun X4 () Real )
(declare-fun Y4 () Real )
(declare-fun X5 () Real )
(declare-fun Y5 () Real )
(declare-fun X6 () Real )
(declare-fun Y6 () Real )
(declare-fun X7 () Real )
(declare-fun Y7 () Real )
(declare-fun X8 () Real )
(declare-fun Y8 () Real )
(declare-fun Z () Real )
(assert ( and  
( or ( <= ( + X0 81 ) X1 )  ( <= ( + X1 61 ) X0 )  ( <= ( + Y0 13 ) Y1 )  ( <= ( + Y1 40 ) Y0 )  )
( or ( <= ( + X0 81 ) X2 )  ( <= ( + X2 30 ) X0 )  ( <= ( + Y0 13 ) Y2 )  ( <= ( + Y2 63 ) Y0 )  )
( or ( <= ( + X0 81 ) X3 )  ( <= ( + X3 29 ) X0 )  ( <= ( + Y0 13 ) Y3 )  ( <= ( + Y3 39 ) Y0 )  )
( or ( <= ( + X0 81 ) X4 )  ( <= ( + X4 99 ) X0 )  ( <= ( + Y0 13 ) Y4 )  ( <= ( + Y4 9 ) Y0 )  )
( or ( <= ( + X0 81 ) X5 )  ( <= ( + X5 62 ) X0 )  ( <= ( + Y0 13 ) Y5 )  ( <= ( + Y5 63 ) Y0 )  )
( or ( <= ( + X0 81 ) X6 )  ( <= ( + X6 69 ) X0 )  ( <= ( + Y0 13 ) Y6 )  ( <= ( + Y6 28 ) Y0 )  )
( or ( <= ( + X0 81 ) X7 )  ( <= ( + X7 18 ) X0 )  ( <= ( + Y0 13 ) Y7 )  ( <= ( + Y7 11 ) Y0 )  )
( or ( <= ( + X0 81 ) X8 )  ( <= ( + X8 19 ) X0 )  ( <= ( + Y0 13 ) Y8 )  ( <= ( + Y8 88 ) Y0 )  )
( or ( <= ( + X1 61 ) X2 )  ( <= ( + X2 30 ) X1 )  ( <= ( + Y1 40 ) Y2 )  ( <= ( + Y2 63 ) Y1 )  )
( or ( <= ( + X1 61 ) X3 )  ( <= ( + X3 29 ) X1 )  ( <= ( + Y1 40 ) Y3 )  ( <= ( + Y3 39 ) Y1 )  )
( or ( <= ( + X1 61 ) X4 )  ( <= ( + X4 99 ) X1 )  ( <= ( + Y1 40 ) Y4 )  ( <= ( + Y4 9 ) Y1 )  )
( or ( <= ( + X1 61 ) X5 )  ( <= ( + X5 62 ) X1 )  ( <= ( + Y1 40 ) Y5 )  ( <= ( + Y5 63 ) Y1 )  )
( or ( <= ( + X1 61 ) X6 )  ( <= ( + X6 69 ) X1 )  ( <= ( + Y1 40 ) Y6 )  ( <= ( + Y6 28 ) Y1 )  )
( or ( <= ( + X1 61 ) X7 )  ( <= ( + X7 18 ) X1 )  ( <= ( + Y1 40 ) Y7 )  ( <= ( + Y7 11 ) Y1 )  )
( or ( <= ( + X1 61 ) X8 )  ( <= ( + X8 19 ) X1 )  ( <= ( + Y1 40 ) Y8 )  ( <= ( + Y8 88 ) Y1 )  )
( or ( <= ( + X2 30 ) X3 )  ( <= ( + X3 29 ) X2 )  ( <= ( + Y2 63 ) Y3 )  ( <= ( + Y3 39 ) Y2 )  )
( or ( <= ( + X2 30 ) X4 )  ( <= ( + X4 99 ) X2 )  ( <= ( + Y2 63 ) Y4 )  ( <= ( + Y4 9 ) Y2 )  )
( or ( <= ( + X2 30 ) X5 )  ( <= ( + X5 62 ) X2 )  ( <= ( + Y2 63 ) Y5 )  ( <= ( + Y5 63 ) Y2 )  )
( or ( <= ( + X2 30 ) X6 )  ( <= ( + X6 69 ) X2 )  ( <= ( + Y2 63 ) Y6 )  ( <= ( + Y6 28 ) Y2 )  )
( or ( <= ( + X2 30 ) X7 )  ( <= ( + X7 18 ) X2 )  ( <= ( + Y2 63 ) Y7 )  ( <= ( + Y7 11 ) Y2 )  )
( or ( <= ( + X2 30 ) X8 )  ( <= ( + X8 19 ) X2 )  ( <= ( + Y2 63 ) Y8 )  ( <= ( + Y8 88 ) Y2 )  )
( or ( <= ( + X3 29 ) X4 )  ( <= ( + X4 99 ) X3 )  ( <= ( + Y3 39 ) Y4 )  ( <= ( + Y4 9 ) Y3 )  )
( or ( <= ( + X3 29 ) X5 )  ( <= ( + X5 62 ) X3 )  ( <= ( + Y3 39 ) Y5 )  ( <= ( + Y5 63 ) Y3 )  )
( or ( <= ( + X3 29 ) X6 )  ( <= ( + X6 69 ) X3 )  ( <= ( + Y3 39 ) Y6 )  ( <= ( + Y6 28 ) Y3 )  )
( or ( <= ( + X3 29 ) X7 )  ( <= ( + X7 18 ) X3 )  ( <= ( + Y3 39 ) Y7 )  ( <= ( + Y7 11 ) Y3 )  )
( or ( <= ( + X3 29 ) X8 )  ( <= ( + X8 19 ) X3 )  ( <= ( + Y3 39 ) Y8 )  ( <= ( + Y8 88 ) Y3 )  )
( or ( <= ( + X4 99 ) X5 )  ( <= ( + X5 62 ) X4 )  ( <= ( + Y4 9 ) Y5 )  ( <= ( + Y5 63 ) Y4 )  )
( or ( <= ( + X4 99 ) X6 )  ( <= ( + X6 69 ) X4 )  ( <= ( + Y4 9 ) Y6 )  ( <= ( + Y6 28 ) Y4 )  )
( or ( <= ( + X4 99 ) X7 )  ( <= ( + X7 18 ) X4 )  ( <= ( + Y4 9 ) Y7 )  ( <= ( + Y7 11 ) Y4 )  )
( or ( <= ( + X4 99 ) X8 )  ( <= ( + X8 19 ) X4 )  ( <= ( + Y4 9 ) Y8 )  ( <= ( + Y8 88 ) Y4 )  )
( or ( <= ( + X5 62 ) X6 )  ( <= ( + X6 69 ) X5 )  ( <= ( + Y5 63 ) Y6 )  ( <= ( + Y6 28 ) Y5 )  )
( or ( <= ( + X5 62 ) X7 )  ( <= ( + X7 18 ) X5 )  ( <= ( + Y5 63 ) Y7 )  ( <= ( + Y7 11 ) Y5 )  )
( or ( <= ( + X5 62 ) X8 )  ( <= ( + X8 19 ) X5 )  ( <= ( + Y5 63 ) Y8 )  ( <= ( + Y8 88 ) Y5 )  )
( or ( <= ( + X6 69 ) X7 )  ( <= ( + X7 18 ) X6 )  ( <= ( + Y6 28 ) Y7 )  ( <= ( + Y7 11 ) Y6 )  )
( or ( <= ( + X6 69 ) X8 )  ( <= ( + X8 19 ) X6 )  ( <= ( + Y6 28 ) Y8 )  ( <= ( + Y8 88 ) Y6 )  )
( or ( <= ( + X7 18 ) X8 )  ( <= ( + X8 19 ) X7 )  ( <= ( + Y7 11 ) Y8 )  ( <= ( + Y8 88 ) Y7 )  )
( >= X0 0)
( <= ( + X0 81) Z)
( >= Y0 0)
( <= ( + Y0 13 ) 100)
( >= X1 0)
( <= ( + X1 61) Z)
( >= Y1 0)
( <= ( + Y1 40 ) 100)
( >= X2 0)
( <= ( + X2 30) Z)
( >= Y2 0)
( <= ( + Y2 63 ) 100)
( >= X3 0)
( <= ( + X3 29) Z)
( >= Y3 0)
( <= ( + Y3 39 ) 100)
( >= X4 0)
( <= ( + X4 99) Z)
( >= Y4 0)
( <= ( + Y4 9 ) 100)
( >= X5 0)
( <= ( + X5 62) Z)
( >= Y5 0)
( <= ( + Y5 63 ) 100)
( >= X6 0)
( <= ( + X6 69) Z)
( >= Y6 0)
( <= ( + Y6 28 ) 100)
( >= X7 0)
( <= ( + X7 18) Z)
( >= Y7 0)
( <= ( + Y7 11 ) 100)
( >= X8 0)
( <= ( + X8 19) Z)
( >= Y8 0)
( <= ( + Y8 88 ) 100)
) )
(minimize Z)
(check-sat)
